p cnf 35 98
a 25 12 0
e 1 2 3 4 5 6 7 8 9 10 11 13 14 15 16 17 18 19 20 21 22 23 24 26 27 28 29 30 31 32 33 34 35 0
-1 -2 -3 0
1 2 -3 0
-1 2 3 0
1 -2 3 0
-4 5 -6 0
4 -5 -6 0
-4 -5 6 0
4 5 6 0
7 -8 -9 0
-7 8 -9 0
7 8 9 0
-7 -8 9 0
-10 -4 0
-10 9 0
4 -9 10 0
-11 4 0
-11 10 0
-4 -10 11 0
-6 11 -12 0
6 -11 -12 0
-6 -11 12 0
6 11 12 0
-3 12 -13 0
3 -12 -13 0
-3 -12 13 0
3 12 13 0
-15 -4 0
-15 14 0
4 -14 15 0
16 15 0
16 -8 0
-15 8 -16 0
-17 -16 0
-17 4 0
16 -4 17 0
18 -13 0
18 -17 0
13 17 -18 0
20 8 0
20 -4 0
-8 4 -20 0
-20 -4 -21 0
20 4 -21 0
-20 4 21 0
20 -4 21 0
-22 19 0
-22 -21 0
-19 21 22 0
-23 -6 0
-23 11 0
6 -11 23 0
24 8 0
24 15 0
-8 -15 -24 0
-25 -7 0
-25 -24 0
7 24 25 0
-23 25 -26 0
23 -25 -26 0
-23 -25 26 0
23 25 26 0
-27 -20 0
-27 4 0
20 -4 27 0
28 -27 0
28 4 0
27 -4 -28 0
-29 -7 0
-29 -4 0
7 4 29 0
-30 -28 0
-30 29 0
28 -29 30 0
31 26 0
31 -30 0
-26 30 -31 0
-32 -22 0
-32 -31 0
22 31 32 0
-33 -18 0
-33 -32 0
18 32 33 0
-34 -4 0
-34 -19 0
4 19 34 0
-35 33 0
-35 -34 0
-33 34 35 0
-13 26 17 19 -30 -7 0
2 22 -3 -20 23 0
-6 -19 -22 -35 0
2 16 7 -6 22 14 24 -18 0
6 25 -9 7 -8 21 0
-22 -5 2 10 0
18 12 -5 9 0
-9 18 -31 -26 0
13 -33 34 21 8 -14 -27 0
35 0
